154 5
10 10 10 10 10 

0 0 0 0 0 0 2 2 14 
0 0 0 0 0 0 1 3 
1 0 1 0 0 0 6 12 11 10 5 4 47 
9 0 3 0 0 0 2 9 7 
9 0 2 0 0 0 1 6 
9 0 2 0 0 0 1 7 
7 0 6 0 0 0 1 8 
9 0 2 0 0 0 1 13 
8 0 2 0 0 0 1 13 
1 0 4 0 0 0 1 13 
4 0 2 0 0 0 1 13 
3 0 1 0 0 0 1 13 
0 0 0 0 0 0 1 26 
0 0 0 0 0 0 2 15 16 
2 0 0 0 1 0 2 18 17 
4 0 0 0 4 0 2 21 19 
8 0 0 0 2 0 2 21 20 
5 0 0 0 1 0 2 24 21 
1 0 0 0 3 0 1 20 
6 0 0 0 3 0 2 24 22 
7 0 0 0 4 0 2 22 133 
10 0 0 0 2 0 1 23 
6 0 0 0 2 0 1 25 
6 0 0 0 3 0 1 25 
0 0 0 0 0 0 1 26 
0 0 0 0 0 0 2 27 39 
0 0 0 0 0 0 2 28 29 
3 0 1 0 0 0 3 37 33 30 
2 0 4 0 0 0 3 36 35 33 
9 0 4 0 0 0 1 31 
9 0 3 0 0 0 1 32 
9 0 2 0 0 0 2 35 34 
9 0 3 0 0 0 1 34 
1 0 4 0 0 0 1 38 
6 0 1 0 0 0 1 38 
10 0 1 0 0 0 1 38 
10 0 2 0 0 0 1 38 
0 0 0 0 0 0 1 51 
0 0 0 0 0 0 1 40 
4 1 0 0 0 0 2 44 41 
1 1 0 0 0 0 2 43 42 
7 3 0 0 0 0 3 49 47 45 
10 2 0 0 0 0 3 49 46 45 
6 2 0 0 0 0 2 49 45 
4 3 0 0 0 0 1 48 
1 3 0 0 0 0 1 48 
10 3 0 0 0 0 1 48 
8 3 0 0 0 0 1 50 
1 4 0 0 0 0 1 50 
0 0 0 0 0 0 1 51 
0 0 0 0 0 0 2 52 64 
0 0 0 0 0 0 1 53 
1 0 0 1 0 0 2 57 54 
7 0 0 2 0 0 2 56 55 
5 0 0 3 0 0 4 62 61 59 58 
7 0 0 3 0 0 4 62 61 59 58 
5 0 0 4 0 0 4 62 61 59 58 
9 0 0 1 0 0 1 60 
6 0 0 2 0 0 1 60 
7 0 0 2 0 0 1 63 
8 0 0 1 0 0 1 63 
5 0 0 6 0 0 1 63 
0 0 0 0 0 0 2 96 108 
0 0 0 0 0 0 3 65 75 94 
4 0 1 1 1 0 2 93 66 
1 0 3 3 2 0 2 91 67 
2 0 4 3 2 0 1 68 
6 0 1 2 3 0 3 90 88 69 
7 0 3 3 3 0 2 89 70 
10 0 2 3 3 0 3 87 86 71 
9 0 1 3 2 0 1 72 
9 0 1 1 1 0 2 85 73 
8 0 3 4 2 0 1 74 
5 0 3 1 3 0 1 76 
4 0 3 4 1 0 6 92 88 86 82 81 78 
3 0 3 4 2 0 2 84 77 
2 0 2 1 2 0 4 83 82 81 78 
9 0 2 4 2 0 1 79 
7 0 4 4 3 0 1 80 
3 0 2 1 2 0 1 95 
1 0 2 2 2 0 1 95 
9 0 3 2 2 0 1 95 
4 0 3 5 3 0 1 95 
6 0 2 1 5 0 1 95 
1 0 3 4 3 0 1 95 
1 0 2 1 1 0 1 95 
5 0 2 1 3 0 1 95 
7 0 1 2 5 0 1 95 
5 0 2 3 4 0 1 95 
3 0 4 1 2 0 1 95 
1 0 4 2 1 0 1 95 
2 0 3 4 2 0 1 95 
7 0 2 3 5 0 1 95 
6 0 4 2 3 0 1 95 
0 0 0 0 0 0 1 154 
0 0 0 0 0 0 4 97 98 99 100 
7 0 0 0 1 0 2 104 101 
5 0 0 0 3 0 2 104 101 
6 0 0 0 2 0 2 104 102 
5 0 0 0 3 0 1 101 
8 0 0 0 2 0 1 102 
2 0 0 0 2 0 2 106 103 
7 0 0 0 2 0 1 105 
4 0 0 0 2 0 1 105 
10 0 0 0 3 0 1 107 
9 0 0 0 5 0 1 107 
0 0 0 0 0 0 2 130 142 
0 0 0 0 0 0 4 109 112 116 128 
10 1 1 0 0 0 2 119 110 
7 2 2 0 0 0 2 127 111 
9 1 2 0 0 0 4 126 122 117 113 
4 2 4 0 0 0 4 126 122 119 118 
8 1 1 0 0 0 2 125 114 
6 4 2 0 0 0 1 115 
1 4 3 0 0 0 2 124 118 
7 3 5 0 0 0 2 125 118 
8 3 6 0 0 0 1 118 
9 2 2 0 0 0 1 120 
2 4 1 0 0 0 2 125 123 
3 2 2 0 0 0 1 121 
1 5 1 0 0 0 1 123 
2 4 3 0 0 0 1 124 
6 3 6 0 0 0 1 129 
2 1 3 0 0 0 1 129 
1 4 2 0 0 0 1 129 
4 1 1 0 0 0 1 129 
4 2 2 0 0 0 1 129 
6 1 1 0 0 0 1 129 
0 0 0 0 0 0 1 154 
0 0 0 0 0 0 4 131 135 139 140 
8 0 1 0 0 0 2 138 132 
9 0 4 0 0 0 1 133 
4 0 4 0 0 0 2 137 134 
1 0 3 0 0 0 1 136 
3 0 3 0 0 0 1 138 
4 0 3 0 0 0 1 141 
5 0 4 0 0 0 1 141 
8 0 1 0 0 0 1 141 
1 0 1 0 0 0 1 141 
8 0 1 0 0 0 1 141 
0 0 0 0 0 0 1 154 
0 0 0 0 0 0 4 143 145 146 147 
9 0 0 0 1 0 1 144 
2 0 0 0 3 0 3 150 149 148 
10 0 0 0 4 0 3 150 149 148 
1 0 0 0 5 0 1 149 
6 0 0 0 2 0 1 148 
10 0 0 0 2 0 1 151 
5 0 0 0 1 0 1 151 
7 0 0 0 5 0 1 151 
7 0 0 0 1 0 1 152 
6 0 0 0 1 0 1 153 
0 0 0 0 0 0 1 154 
0 0 0 0 0 0 0 
